(set-logic QF_LRA)
(declare-fun X0 () Real )
(declare-fun Y0 () Real )
(declare-fun X1 () Real )
(declare-fun Y1 () Real )
(declare-fun X2 () Real )
(declare-fun Y2 () Real )
(declare-fun X3 () Real )
(declare-fun Y3 () Real )
(declare-fun X4 () Real )
(declare-fun Y4 () Real )
(declare-fun X5 () Real )
(declare-fun Y5 () Real )
(declare-fun X6 () Real )
(declare-fun Y6 () Real )
(declare-fun X7 () Real )
(declare-fun Y7 () Real )
(declare-fun X8 () Real )
(declare-fun Y8 () Real )
(declare-fun Z () Real )
(declare-fun k () Real )
(assert (let
(( $goal (>= Z k) ))
(let
((
$phi ( and 
( or ( <= ( + X0 94 ) X1 )  ( <= ( + X1 68 ) X0 )  ( <= ( + Y0 42 ) Y1 )  ( <= ( + Y1 66 ) Y0 )  )
( or ( <= ( + X0 94 ) X2 )  ( <= ( + X2 72 ) X0 )  ( <= ( + Y0 42 ) Y2 )  ( <= ( + Y2 47 ) Y0 )  )
( or ( <= ( + X0 94 ) X3 )  ( <= ( + X3 44 ) X0 )  ( <= ( + Y0 42 ) Y3 )  ( <= ( + Y3 56 ) Y0 )  )
( or ( <= ( + X0 94 ) X4 )  ( <= ( + X4 97 ) X0 )  ( <= ( + Y0 42 ) Y4 )  ( <= ( + Y4 99 ) Y0 )  )
( or ( <= ( + X0 94 ) X5 )  ( <= ( + X5 42 ) X0 )  ( <= ( + Y0 42 ) Y5 )  ( <= ( + Y5 57 ) Y0 )  )
( or ( <= ( + X0 94 ) X6 )  ( <= ( + X6 44 ) X0 )  ( <= ( + Y0 42 ) Y6 )  ( <= ( + Y6 98 ) Y0 )  )
( or ( <= ( + X0 94 ) X7 )  ( <= ( + X7 51 ) X0 )  ( <= ( + Y0 42 ) Y7 )  ( <= ( + Y7 95 ) Y0 )  )
( or ( <= ( + X0 94 ) X8 )  ( <= ( + X8 67 ) X0 )  ( <= ( + Y0 42 ) Y8 )  ( <= ( + Y8 53 ) Y0 )  )
( or ( <= ( + X1 68 ) X2 )  ( <= ( + X2 72 ) X1 )  ( <= ( + Y1 66 ) Y2 )  ( <= ( + Y2 47 ) Y1 )  )
( or ( <= ( + X1 68 ) X3 )  ( <= ( + X3 44 ) X1 )  ( <= ( + Y1 66 ) Y3 )  ( <= ( + Y3 56 ) Y1 )  )
( or ( <= ( + X1 68 ) X4 )  ( <= ( + X4 97 ) X1 )  ( <= ( + Y1 66 ) Y4 )  ( <= ( + Y4 99 ) Y1 )  )
( or ( <= ( + X1 68 ) X5 )  ( <= ( + X5 42 ) X1 )  ( <= ( + Y1 66 ) Y5 )  ( <= ( + Y5 57 ) Y1 )  )
( or ( <= ( + X1 68 ) X6 )  ( <= ( + X6 44 ) X1 )  ( <= ( + Y1 66 ) Y6 )  ( <= ( + Y6 98 ) Y1 )  )
( or ( <= ( + X1 68 ) X7 )  ( <= ( + X7 51 ) X1 )  ( <= ( + Y1 66 ) Y7 )  ( <= ( + Y7 95 ) Y1 )  )
( or ( <= ( + X1 68 ) X8 )  ( <= ( + X8 67 ) X1 )  ( <= ( + Y1 66 ) Y8 )  ( <= ( + Y8 53 ) Y1 )  )
( or ( <= ( + X2 72 ) X3 )  ( <= ( + X3 44 ) X2 )  ( <= ( + Y2 47 ) Y3 )  ( <= ( + Y3 56 ) Y2 )  )
( or ( <= ( + X2 72 ) X4 )  ( <= ( + X4 97 ) X2 )  ( <= ( + Y2 47 ) Y4 )  ( <= ( + Y4 99 ) Y2 )  )
( or ( <= ( + X2 72 ) X5 )  ( <= ( + X5 42 ) X2 )  ( <= ( + Y2 47 ) Y5 )  ( <= ( + Y5 57 ) Y2 )  )
( or ( <= ( + X2 72 ) X6 )  ( <= ( + X6 44 ) X2 )  ( <= ( + Y2 47 ) Y6 )  ( <= ( + Y6 98 ) Y2 )  )
( or ( <= ( + X2 72 ) X7 )  ( <= ( + X7 51 ) X2 )  ( <= ( + Y2 47 ) Y7 )  ( <= ( + Y7 95 ) Y2 )  )
( or ( <= ( + X2 72 ) X8 )  ( <= ( + X8 67 ) X2 )  ( <= ( + Y2 47 ) Y8 )  ( <= ( + Y8 53 ) Y2 )  )
( or ( <= ( + X3 44 ) X4 )  ( <= ( + X4 97 ) X3 )  ( <= ( + Y3 56 ) Y4 )  ( <= ( + Y4 99 ) Y3 )  )
( or ( <= ( + X3 44 ) X5 )  ( <= ( + X5 42 ) X3 )  ( <= ( + Y3 56 ) Y5 )  ( <= ( + Y5 57 ) Y3 )  )
( or ( <= ( + X3 44 ) X6 )  ( <= ( + X6 44 ) X3 )  ( <= ( + Y3 56 ) Y6 )  ( <= ( + Y6 98 ) Y3 )  )
( or ( <= ( + X3 44 ) X7 )  ( <= ( + X7 51 ) X3 )  ( <= ( + Y3 56 ) Y7 )  ( <= ( + Y7 95 ) Y3 )  )
( or ( <= ( + X3 44 ) X8 )  ( <= ( + X8 67 ) X3 )  ( <= ( + Y3 56 ) Y8 )  ( <= ( + Y8 53 ) Y3 )  )
( or ( <= ( + X4 97 ) X5 )  ( <= ( + X5 42 ) X4 )  ( <= ( + Y4 99 ) Y5 )  ( <= ( + Y5 57 ) Y4 )  )
( or ( <= ( + X4 97 ) X6 )  ( <= ( + X6 44 ) X4 )  ( <= ( + Y4 99 ) Y6 )  ( <= ( + Y6 98 ) Y4 )  )
( or ( <= ( + X4 97 ) X7 )  ( <= ( + X7 51 ) X4 )  ( <= ( + Y4 99 ) Y7 )  ( <= ( + Y7 95 ) Y4 )  )
( or ( <= ( + X4 97 ) X8 )  ( <= ( + X8 67 ) X4 )  ( <= ( + Y4 99 ) Y8 )  ( <= ( + Y8 53 ) Y4 )  )
( or ( <= ( + X5 42 ) X6 )  ( <= ( + X6 44 ) X5 )  ( <= ( + Y5 57 ) Y6 )  ( <= ( + Y6 98 ) Y5 )  )
( or ( <= ( + X5 42 ) X7 )  ( <= ( + X7 51 ) X5 )  ( <= ( + Y5 57 ) Y7 )  ( <= ( + Y7 95 ) Y5 )  )
( or ( <= ( + X5 42 ) X8 )  ( <= ( + X8 67 ) X5 )  ( <= ( + Y5 57 ) Y8 )  ( <= ( + Y8 53 ) Y5 )  )
( or ( <= ( + X6 44 ) X7 )  ( <= ( + X7 51 ) X6 )  ( <= ( + Y6 98 ) Y7 )  ( <= ( + Y7 95 ) Y6 )  )
( or ( <= ( + X6 44 ) X8 )  ( <= ( + X8 67 ) X6 )  ( <= ( + Y6 98 ) Y8 )  ( <= ( + Y8 53 ) Y6 )  )
( or ( <= ( + X7 51 ) X8 )  ( <= ( + X8 67 ) X7 )  ( <= ( + Y7 95 ) Y8 )  ( <= ( + Y8 53 ) Y7 )  )
( >= X0 0)
( <= ( + X0 94) Z)
( >= Y0 0)
( <= ( + Y0 42 ) 100)
( >= X1 0)
( <= ( + X1 68) Z)
( >= Y1 0)
( <= ( + Y1 66 ) 100)
( >= X2 0)
( <= ( + X2 72) Z)
( >= Y2 0)
( <= ( + Y2 47 ) 100)
( >= X3 0)
( <= ( + X3 44) Z)
( >= Y3 0)
( <= ( + Y3 56 ) 100)
( >= X4 0)
( <= ( + X4 97) Z)
( >= Y4 0)
( <= ( + Y4 99 ) 100)
( >= X5 0)
( <= ( + X5 42) Z)
( >= Y5 0)
( <= ( + Y5 57 ) 100)
( >= X6 0)
( <= ( + X6 44) Z)
( >= Y6 0)
( <= ( + Y6 98 ) 100)
( >= X7 0)
( <= ( + X7 51) Z)
( >= Y7 0)
( <= ( + Y7 95 ) 100)
( >= X8 0)
( <= ( + X8 67) Z)
( >= Y8 0)
( <= ( + Y8 53 ) 100)
) )
)(=> $phi $goal))))